20
1 0 22
2 0 13
2 1 20
3 0 56
3 1 36
3 2 25
4 0 5
4 1 56
4 2 46
4 3 54
5 0 1
5 1 6
5 2 40
5 3 6
5 4 40
6 0 30
6 1 59
6 2 19
6 3 51
6 4 17
6 5 60
7 0 51
7 1 1
7 2 14
7 3 9
7 4 52
7 5 55
7 6 29
8 0 35
8 1 21
8 2 49
8 3 39
8 4 23
8 5 4
8 6 10
8 7 60
9 0 55
9 1 45
9 2 21
9 3 9
9 4 2
9 5 43
9 6 3
9 7 36
9 8 30
10 0 45
10 1 20
10 2 3
10 3 15
10 4 48
10 5 18
10 6 10
10 7 9
10 8 55
10 9 11
11 0 24
11 1 27
11 2 35
11 3 5
11 4 5
11 5 15
11 6 13
11 7 47
11 8 42
11 9 12
11 10 28
12 0 14
12 1 4
12 2 52
12 3 44
12 4 45
12 5 12
12 6 60
12 7 59
12 8 2
12 9 37
12 10 50
12 11 39
13 0 24
13 1 29
13 2 21
13 3 28
13 4 60
13 5 6
13 6 34
13 7 16
13 8 53
13 9 22
13 10 56
13 11 8
13 12 7
14 0 22
14 1 59
14 2 34
14 3 16
14 4 4
14 5 58
14 6 33
14 7 12
14 8 56
14 9 6
14 10 31
14 11 44
14 12 52
14 13 35
15 0 38
15 1 43
15 2 49
15 3 45
15 4 5
15 5 38
15 6 53
15 7 36
15 8 6
15 9 38
15 10 50
15 11 60
15 12 59
15 13 47
15 14 26
16 0 4
16 1 17
16 2 47
16 3 43
16 4 34
16 5 2
16 6 32
16 7 29
16 8 21
16 9 36
16 10 16
16 11 25
16 12 6
16 13 26
16 14 7
16 15 36
17 0 4
17 1 10
17 2 22
17 3 26
17 4 24
17 5 25
17 6 43
17 7 7
17 8 20
17 9 19
17 10 25
17 11 22
17 12 23
17 13 60
17 14 53
17 15 48
17 16 5
18 0 3
18 1 22
18 2 21
18 3 15
18 4 2
18 5 41
18 6 36
18 7 34
18 8 25
18 9 8
18 10 45
18 11 4
18 12 24
18 13 4
18 14 57
18 15 52
18 16 58
18 17 41
19 0 46
19 1 51
19 2 28
19 3 8
19 4 18
19 5 51
19 6 1
19 7 57
19 8 18
19 9 56
19 10 35
19 11 29
19 12 60
19 13 55
19 14 3
19 15 28
19 16 45
19 17 41
19 18 9
